12      4       
14      10      12      12      
0       0       0       0       0       3       2       3       4       
2       0       10      0       8       3       5       6       7       
6       10      0       0       0       1       11      
6       0       0       6       4       1       11      
2       1       0       0       0       1       10      
7       7       2       4       9       2       8       10      
9       0       0       6       0       2       9       10      
6       1       0       8       10      2       9       11      
3       9       0       5       9       1       12      
5       0       10      0       1       1       12      
2       3       0       0       0       1       12      
0       0       0       0       0       0       